<number of tasks>
50

<cycle time>
1000

<order strength>
0.597


<task times>
1 63
2 140
3 255
4 57
5 160
6 427
7 97
8 168
9 154
10 48
11 231
12 204
13 560
14 577
15 54
16 280
17 65
18 114
19 134
20 125
21 97
22 256
23 198
24 290
25 565
26 323
27 187
28 116
29 140
30 521
31 314
32 138
33 116
34 69
35 489
36 80
37 255
38 536
39 300
40 101
41 200
42 172
43 381
44 47
45 244
46 138
47 541
48 29
49 247
50 266

<precedence relations>
1,10
2,42
3,5
3,6
3,7
3,8
3,9
4,5
4,7
4,9
5,10
6,10
7,10
8,42
9,10
9,11
9,12
9,13
9,14
10,15
10,16
10,17
10,18
10,19
10,20
11,42
12,20
12,42
13,20
13,21
14,23
15,22
16,22
16,23
17,21
17,22
17,23
18,21
18,22
18,23
19,38
19,43
21,28
22,28
23,24
23,25
23,26
23,27
24,28
25,28
26,28
27,29
27,30
27,31
27,32
28,33
28,34
28,35
28,36
28,37
29,43
29,50
30,39
30,40
31,37
31,44
32,41
33,43
33,44
33,45
35,41
35,42
36,39
36,40
37,38
37,45
38,42
39,42
41,43
41,44
41,45
42,46
42,47
42,48
42,49
45,50

<end>
